(set-logic QF_NRA)
(set-info :source |Benchmarks generated from hycomp (https://es-static.fbk.eu/tools/hycomp/). BMC instances of non-linear hybrid automata taken from: Alessandro Cimatti, Sergio Mover, Stefano Tonetta, A quantifier-free SMT encoding of non-linear hybrid automata, FMCAD 2012 and Alessandro Cimatti, Sergio Mover, Stefano Tonetta, Quantier-free encoding of invariants for Hybrid Systems, Formal Methods in System Design. This instance solves a BMC problem of depth 3 and uses the encoding obtained with quantifier elimination using redlog encoding. Contacts: Sergio Mover (mover@fbk.eu), Stefano Tonetta (tonettas@fbk.eu), Alessandro Cimatti (cimatti@fbk.eu).|)
(set-info :smt-lib-version 2.0)
(set-info :category "industrial")
(set-info :status unsat)
;; MathSAT API call trace
;; generated on Mon Mar 19 10:51:01 2012
(declare-fun b.EVENT.0__AT0 () Bool)
(declare-fun b.time__AT1 () Real)
(declare-fun b.y__AT0 () Real)
(declare-fun b.counter.0__AT0 () Bool)
(declare-fun b.speed_y__AT2 () Real)
(declare-fun b.counter.2__AT0 () Bool)
(declare-fun b.counter.1__AT0 () Bool)
(declare-fun b.counter.1__AT1 () Bool)
(declare-fun b.counter.2__AT2 () Bool)
(declare-fun b.counter.2__AT1 () Bool)
(declare-fun b.counter.3__AT2 () Bool)
(declare-fun b.event_is_timed__AT3 () Bool)
(declare-fun speed_loss__AT0 () Real)
(declare-fun b.speed_y__AT0 () Real)
(declare-fun b.y__AT3 () Real)
(declare-fun b.event_is_timed__AT1 () Bool)
(declare-fun b.counter.0__AT2 () Bool)
(declare-fun b.counter.0__AT3 () Bool)
(declare-fun b.event_is_timed__AT0 () Bool)
(declare-fun b.counter.1__AT2 () Bool)
(declare-fun b.time__AT3 () Real)
(declare-fun b.counter.1__AT3 () Bool)
(declare-fun b.event_is_timed__AT2 () Bool)
(declare-fun b.counter.3__AT1 () Bool)
(declare-fun b.delta__AT3 () Real)
(declare-fun b.counter.2__AT3 () Bool)
(declare-fun b.EVENT.0__AT3 () Bool)
(declare-fun b.y__AT1 () Real)
(declare-fun b.counter.3__AT3 () Bool)
(declare-fun b.EVENT.1__AT3 () Bool)
(declare-fun b.counter.0__AT1 () Bool)
(declare-fun b.counter.3__AT0 () Bool)
(declare-fun b.time__AT2 () Real)
(declare-fun b.speed_y__AT3 () Real)
(declare-fun b.delta__AT1 () Real)
(declare-fun b.delta__AT2 () Real)
(declare-fun b.EVENT.0__AT1 () Bool)
(declare-fun b.EVENT.1__AT0 () Bool)
(declare-fun b.delta__AT0 () Real)
(declare-fun b.EVENT.0__AT2 () Bool)
(declare-fun b.EVENT.1__AT1 () Bool)
(declare-fun b.y__AT2 () Real)
(declare-fun b.EVENT.1__AT2 () Bool)
(declare-fun b.speed_y__AT1 () Real)
(declare-fun b.time__AT0 () Real)
(assert (let ((.def_643 (* 49.0 b.delta__AT3)))
(let ((.def_644 (* b.delta__AT3 .def_643)))
(let ((.def_645 (* (- 1.0) .def_644)))
(let ((.def_641 (* 10.0 b.speed_y__AT3)))
(let ((.def_642 (* b.delta__AT3 .def_641)))
(let ((.def_646 (+ .def_642 .def_645)))
(let ((.def_647 (* 10.0 b.y__AT3)))
(let ((.def_649 (+ .def_647 .def_646)))
(let ((.def_650 (<= 0.0 .def_649)))
(let ((.def_677 (not .def_650)))
(let ((.def_661 (* (- 49.0) b.delta__AT3)))
(let ((.def_652 (* 5.0 b.speed_y__AT3)))
(let ((.def_662 (+ .def_652 .def_661)))
(let ((.def_663 (<= 0.0 .def_662)))
(let ((.def_678 (and .def_663 .def_677)))
(let ((.def_673 (<= b.speed_y__AT3 0.0 )))
(let ((.def_627 (<= 0.0 b.y__AT3)))
(let ((.def_676 (or .def_627 .def_673)))
(let ((.def_679 (or .def_676 .def_678)))
(let ((.def_672 (<= b.y__AT3 0.0 )))
(let ((.def_674 (and .def_672 .def_673)))
(let ((.def_667 (<= .def_662 0.0 )))
(let ((.def_668 (not .def_667)))
(let ((.def_665 (= .def_649 0.0 )))
(let ((.def_666 (not .def_665)))
(let ((.def_669 (or .def_666 .def_668)))
(let ((.def_664 (or .def_650 .def_663)))
(let ((.def_670 (and .def_664 .def_669)))
(let ((.def_653 (* b.speed_y__AT3 .def_652)))
(let ((.def_654 (* 98.0 b.y__AT3)))
(let ((.def_656 (+ .def_654 .def_653)))
(let ((.def_659 (<= .def_656 0.0 )))
(let ((.def_660 (not .def_659)))
(let ((.def_671 (or .def_660 .def_670)))
(let ((.def_675 (or .def_671 .def_674)))
(let ((.def_680 (and .def_675 .def_679)))
(let ((.def_657 (<= 0.0 .def_656)))
(let ((.def_658 (not .def_657)))
(let ((.def_681 (or .def_658 .def_680)))
(let ((.def_639 (<= 0.0 b.delta__AT3)))
(let ((.def_640 (not .def_639)))
(let ((.def_651 (or .def_640 .def_650)))
(let ((.def_682 (and .def_651 .def_681)))
(let ((.def_624 (not b.EVENT.0__AT3)))
(let ((.def_622 (not b.EVENT.1__AT3)))
(let ((.def_636 (and .def_622 .def_624)))
(let ((.def_637 (not .def_636)))
(let ((.def_683 (or .def_637 .def_682)))
(let ((.def_333 (not b.counter.0__AT2)))
(let ((.def_321 (not b.counter.1__AT2)))
(let ((.def_631 (and .def_321 .def_333)))
(let ((.def_328 (not b.counter.2__AT2)))
(let ((.def_632 (and .def_328 .def_631)))
(let ((.def_343 (not b.counter.3__AT2)))
(let ((.def_633 (and .def_343 .def_632)))
(let ((.def_58 (<= speed_loss__AT0 (/ 1 2))))
(let ((.def_55 (<= (/ 1 10) speed_loss__AT0)))
(let ((.def_59 (and .def_55 .def_58)))
(let ((.def_628 (and .def_59 .def_627)))
(let ((.def_625 (or .def_622 .def_624)))
(let ((.def_6 (not b.counter.0__AT3)))
(let ((.def_4 (not b.counter.1__AT3)))
(let ((.def_615 (or .def_4 .def_6)))
(let ((.def_619 (or b.counter.3__AT3 .def_615)))
(let ((.def_616 (or b.counter.2__AT3 .def_615)))
(let ((.def_9 (not b.counter.2__AT3)))
(let ((.def_614 (or .def_6 .def_9)))
(let ((.def_617 (and .def_614 .def_616)))
(let ((.def_12 (not b.counter.3__AT3)))
(let ((.def_618 (or .def_12 .def_617)))
(let ((.def_620 (and .def_618 .def_619)))
(let ((.def_626 (and .def_620 .def_625)))
(let ((.def_629 (and .def_626 .def_628)))
(let ((.def_456 (<= 0.0 b.delta__AT2)))
(let ((.def_441 (not b.EVENT.0__AT2)))
(let ((.def_439 (not b.EVENT.1__AT2)))
(let ((.def_453 (and .def_439 .def_441)))
(let ((.def_454 (not .def_453)))
(let ((.def_610 (or .def_454 .def_456)))
(let ((.def_611 (or b.EVENT.1__AT2 .def_610)))
(let ((.def_548 (= b.counter.0__AT3 b.counter.0__AT2)))
(let ((.def_546 (= b.counter.1__AT3 b.counter.1__AT2)))
(let ((.def_544 (= b.counter.2__AT3 b.counter.2__AT2)))
(let ((.def_543 (= b.counter.3__AT3 b.counter.3__AT2)))
(let ((.def_545 (and .def_543 .def_544)))
(let ((.def_547 (and .def_545 .def_546)))
(let ((.def_549 (and .def_547 .def_548)))
(let ((.def_607 (or .def_454 .def_549)))
(let ((.def_608 (or b.EVENT.1__AT2 .def_607)))
(let ((.def_599 (* (- 5.0) b.speed_y__AT3)))
(let ((.def_478 (* (- 49.0) b.delta__AT2)))
(let ((.def_600 (+ .def_478 .def_599)))
(let ((.def_469 (* 5.0 b.speed_y__AT2)))
(let ((.def_601 (+ .def_469 .def_600)))
(let ((.def_602 (= .def_601 0.0 )))
(let ((.def_590 (* b.speed_y__AT2 b.delta__AT2)))
(let ((.def_591 (* 10.0 .def_590)))
(let ((.def_588 (* b.delta__AT2 b.delta__AT2)))
(let ((.def_589 (* (- 49.0) .def_588)))
(let ((.def_592 (+ .def_589 .def_591)))
(let ((.def_593 (* (- 10.0) b.y__AT3)))
(let ((.def_596 (+ .def_593 .def_592)))
(let ((.def_464 (* 10.0 b.y__AT2)))
(let ((.def_597 (+ .def_464 .def_596)))
(let ((.def_598 (= .def_597 0.0 )))
(let ((.def_603 (and .def_598 .def_602)))
(let ((.def_604 (or .def_454 .def_603)))
(let ((.def_554 (= b.y__AT2 b.y__AT3)))
(let ((.def_542 (= b.speed_y__AT2 b.speed_y__AT3)))
(let ((.def_585 (and .def_542 .def_554)))
(let ((.def_582 (= b.delta__AT2 0.0 )))
(let ((.def_583 (and .def_453 .def_582)))
(let ((.def_584 (not .def_583)))
(let ((.def_586 (or .def_584 .def_585)))
(let ((.def_587 (or b.EVENT.1__AT2 .def_586)))
(let ((.def_605 (and .def_587 .def_604)))
(let ((.def_564 (= b.time__AT2 b.time__AT3)))
(let ((.def_576 (and .def_554 .def_564)))
(let ((.def_577 (and .def_542 .def_576)))
(let ((.def_578 (and .def_549 .def_577)))
(let ((.def_579 (or .def_439 .def_578)))
(let ((.def_567 (* (- 1.0) b.time__AT3)))
(let ((.def_570 (+ b.delta__AT2 .def_567)))
(let ((.def_571 (+ b.time__AT2 .def_570)))
(let ((.def_572 (= .def_571 0.0 )))
(let ((.def_573 (or .def_454 .def_572)))
(let ((.def_574 (or b.EVENT.1__AT2 .def_573)))
(let ((.def_565 (or .def_453 .def_564)))
(let ((.def_566 (or b.EVENT.1__AT2 .def_565)))
(let ((.def_575 (and .def_566 .def_574)))
(let ((.def_580 (and .def_575 .def_579)))
(let ((.def_560 (= .def_454 b.event_is_timed__AT3)))
(let ((.def_558 (= b.event_is_timed__AT2 .def_453)))
(let ((.def_561 (and .def_558 .def_560)))
(let ((.def_550 (and .def_542 .def_549)))
(let ((.def_503 (<= 0.0 b.speed_y__AT2)))
(let ((.def_504 (not .def_503)))
(let ((.def_502 (= b.y__AT2 0.0 )))
(let ((.def_505 (and .def_502 .def_504)))
(let ((.def_551 (or .def_505 .def_550)))
(let ((.def_519 (or .def_6 b.counter.0__AT2)))
(let ((.def_518 (or b.counter.0__AT3 .def_333)))
(let ((.def_520 (and .def_518 .def_519)))
(let ((.def_521 (and .def_4 .def_520)))
(let ((.def_522 (or b.counter.1__AT2 .def_521)))
(let ((.def_517 (or b.counter.1__AT3 .def_321)))
(let ((.def_523 (and .def_517 .def_522)))
(let ((.def_534 (and .def_9 .def_523)))
(let ((.def_535 (or b.counter.2__AT2 .def_534)))
(let ((.def_529 (and .def_4 .def_333)))
(let ((.def_530 (or b.counter.1__AT2 .def_529)))
(let ((.def_531 (and .def_517 .def_530)))
(let ((.def_532 (and b.counter.2__AT3 .def_531)))
(let ((.def_533 (or .def_328 .def_532)))
(let ((.def_536 (and .def_533 .def_535)))
(let ((.def_537 (and b.counter.3__AT3 .def_536)))
(let ((.def_538 (or b.counter.3__AT2 .def_537)))
(let ((.def_524 (and b.counter.2__AT3 .def_523)))
(let ((.def_525 (or b.counter.2__AT2 .def_524)))
(let ((.def_513 (or b.counter.1__AT3 b.counter.1__AT2)))
(let ((.def_511 (and .def_4 b.counter.0__AT3)))
(let ((.def_512 (or .def_321 .def_511)))
(let ((.def_514 (and .def_512 .def_513)))
(let ((.def_515 (and .def_9 .def_514)))
(let ((.def_516 (or .def_328 .def_515)))
(let ((.def_526 (and .def_516 .def_525)))
(let ((.def_527 (and .def_12 .def_526)))
(let ((.def_528 (or .def_343 .def_527)))
(let ((.def_539 (and .def_528 .def_538)))
(let ((.def_507 (* (- 1.0) b.speed_y__AT2)))
(let ((.def_125 (* (- 1.0) speed_loss__AT0)))
(let ((.def_126 (+ 1.0 .def_125)))
(let ((.def_508 (* .def_126 .def_507)))
(let ((.def_510 (= .def_508 b.speed_y__AT3)))
(let ((.def_540 (and .def_510 .def_539)))
(let ((.def_506 (not .def_505)))
(let ((.def_541 (or .def_506 .def_540)))
(let ((.def_552 (and .def_541 .def_551)))
(let ((.def_555 (and .def_552 .def_554)))
(let ((.def_556 (or .def_453 .def_555)))
(let ((.def_557 (or b.EVENT.1__AT2 .def_556)))
(let ((.def_562 (and .def_557 .def_561)))
(let ((.def_581 (and .def_562 .def_580)))
(let ((.def_606 (and .def_581 .def_605)))
(let ((.def_609 (and .def_606 .def_608)))
(let ((.def_612 (and .def_609 .def_611)))
(let ((.def_613 (and .def_439 .def_612)))
(let ((.def_630 (and .def_613 .def_629)))
(let ((.def_634 (and .def_630 .def_633)))
(let ((.def_460 (* 49.0 b.delta__AT2)))
(let ((.def_461 (* b.delta__AT2 .def_460)))
(let ((.def_462 (* (- 1.0) .def_461)))
(let ((.def_458 (* 10.0 b.speed_y__AT2)))
(let ((.def_459 (* b.delta__AT2 .def_458)))
(let ((.def_463 (+ .def_459 .def_462)))
(let ((.def_466 (+ .def_464 .def_463)))
(let ((.def_467 (<= 0.0 .def_466)))
(let ((.def_494 (not .def_467)))
(let ((.def_479 (+ .def_469 .def_478)))
(let ((.def_480 (<= 0.0 .def_479)))
(let ((.def_495 (and .def_480 .def_494)))
(let ((.def_490 (<= b.speed_y__AT2 0.0 )))
(let ((.def_444 (<= 0.0 b.y__AT2)))
(let ((.def_493 (or .def_444 .def_490)))
(let ((.def_496 (or .def_493 .def_495)))
(let ((.def_489 (<= b.y__AT2 0.0 )))
(let ((.def_491 (and .def_489 .def_490)))
(let ((.def_484 (<= .def_479 0.0 )))
(let ((.def_485 (not .def_484)))
(let ((.def_482 (= .def_466 0.0 )))
(let ((.def_483 (not .def_482)))
(let ((.def_486 (or .def_483 .def_485)))
(let ((.def_481 (or .def_467 .def_480)))
(let ((.def_487 (and .def_481 .def_486)))
(let ((.def_470 (* b.speed_y__AT2 .def_469)))
(let ((.def_471 (* 98.0 b.y__AT2)))
(let ((.def_473 (+ .def_471 .def_470)))
(let ((.def_476 (<= .def_473 0.0 )))
(let ((.def_477 (not .def_476)))
(let ((.def_488 (or .def_477 .def_487)))
(let ((.def_492 (or .def_488 .def_491)))
(let ((.def_497 (and .def_492 .def_496)))
(let ((.def_474 (<= 0.0 .def_473)))
(let ((.def_475 (not .def_474)))
(let ((.def_498 (or .def_475 .def_497)))
(let ((.def_457 (not .def_456)))
(let ((.def_468 (or .def_457 .def_467)))
(let ((.def_499 (and .def_468 .def_498)))
(let ((.def_500 (or .def_454 .def_499)))
(let ((.def_143 (not b.counter.0__AT1)))
(let ((.def_131 (not b.counter.1__AT1)))
(let ((.def_448 (and .def_131 .def_143)))
(let ((.def_138 (not b.counter.2__AT1)))
(let ((.def_449 (and .def_138 .def_448)))
(let ((.def_153 (not b.counter.3__AT1)))
(let ((.def_450 (and .def_153 .def_449)))
(let ((.def_445 (and .def_59 .def_444)))
(let ((.def_442 (or .def_439 .def_441)))
(let ((.def_432 (or .def_321 .def_333)))
(let ((.def_436 (or b.counter.3__AT2 .def_432)))
(let ((.def_433 (or b.counter.2__AT2 .def_432)))
(let ((.def_431 (or .def_328 .def_333)))
(let ((.def_434 (and .def_431 .def_433)))
(let ((.def_435 (or .def_343 .def_434)))
(let ((.def_437 (and .def_435 .def_436)))
(let ((.def_443 (and .def_437 .def_442)))
(let ((.def_446 (and .def_443 .def_445)))
(let ((.def_265 (<= 0.0 b.delta__AT1)))
(let ((.def_253 (not b.EVENT.0__AT1)))
(let ((.def_251 (not b.EVENT.1__AT1)))
(let ((.def_262 (and .def_251 .def_253)))
(let ((.def_263 (not .def_262)))
(let ((.def_427 (or .def_263 .def_265)))
(let ((.def_428 (or b.EVENT.1__AT1 .def_427)))
(let ((.def_365 (= b.counter.0__AT1 b.counter.0__AT2)))
(let ((.def_363 (= b.counter.1__AT1 b.counter.1__AT2)))
(let ((.def_361 (= b.counter.2__AT1 b.counter.2__AT2)))
(let ((.def_360 (= b.counter.3__AT1 b.counter.3__AT2)))
(let ((.def_362 (and .def_360 .def_361)))
(let ((.def_364 (and .def_362 .def_363)))
(let ((.def_366 (and .def_364 .def_365)))
(let ((.def_424 (or .def_263 .def_366)))
(let ((.def_425 (or b.EVENT.1__AT1 .def_424)))
(let ((.def_416 (* (- 5.0) b.speed_y__AT2)))
(let ((.def_287 (* (- 49.0) b.delta__AT1)))
(let ((.def_417 (+ .def_287 .def_416)))
(let ((.def_278 (* 5.0 b.speed_y__AT1)))
(let ((.def_418 (+ .def_278 .def_417)))
(let ((.def_419 (= .def_418 0.0 )))
(let ((.def_407 (* b.speed_y__AT1 b.delta__AT1)))
(let ((.def_408 (* 10.0 .def_407)))
(let ((.def_405 (* b.delta__AT1 b.delta__AT1)))
(let ((.def_406 (* (- 49.0) .def_405)))
(let ((.def_409 (+ .def_406 .def_408)))
(let ((.def_410 (* (- 10.0) b.y__AT2)))
(let ((.def_413 (+ .def_410 .def_409)))
(let ((.def_273 (* 10.0 b.y__AT1)))
(let ((.def_414 (+ .def_273 .def_413)))
(let ((.def_415 (= .def_414 0.0 )))
(let ((.def_420 (and .def_415 .def_419)))
(let ((.def_421 (or .def_263 .def_420)))
(let ((.def_371 (= b.y__AT1 b.y__AT2)))
(let ((.def_359 (= b.speed_y__AT1 b.speed_y__AT2)))
(let ((.def_402 (and .def_359 .def_371)))
(let ((.def_399 (= b.delta__AT1 0.0 )))
(let ((.def_400 (and .def_262 .def_399)))
(let ((.def_401 (not .def_400)))
(let ((.def_403 (or .def_401 .def_402)))
(let ((.def_404 (or b.EVENT.1__AT1 .def_403)))
(let ((.def_422 (and .def_404 .def_421)))
(let ((.def_381 (= b.time__AT1 b.time__AT2)))
(let ((.def_393 (and .def_371 .def_381)))
(let ((.def_394 (and .def_359 .def_393)))
(let ((.def_395 (and .def_366 .def_394)))
(let ((.def_396 (or .def_251 .def_395)))
(let ((.def_384 (* (- 1.0) b.time__AT2)))
(let ((.def_387 (+ b.delta__AT1 .def_384)))
(let ((.def_388 (+ b.time__AT1 .def_387)))
(let ((.def_389 (= .def_388 0.0 )))
(let ((.def_390 (or .def_263 .def_389)))
(let ((.def_391 (or b.EVENT.1__AT1 .def_390)))
(let ((.def_382 (or .def_262 .def_381)))
(let ((.def_383 (or b.EVENT.1__AT1 .def_382)))
(let ((.def_392 (and .def_383 .def_391)))
(let ((.def_397 (and .def_392 .def_396)))
(let ((.def_377 (= .def_263 b.event_is_timed__AT2)))
(let ((.def_375 (= b.event_is_timed__AT1 .def_262)))
(let ((.def_378 (and .def_375 .def_377)))
(let ((.def_367 (and .def_359 .def_366)))
(let ((.def_312 (<= 0.0 b.speed_y__AT1)))
(let ((.def_313 (not .def_312)))
(let ((.def_311 (= b.y__AT1 0.0 )))
(let ((.def_314 (and .def_311 .def_313)))
(let ((.def_368 (or .def_314 .def_367)))
(let ((.def_334 (or b.counter.0__AT1 .def_333)))
(let ((.def_332 (or .def_143 b.counter.0__AT2)))
(let ((.def_335 (and .def_332 .def_334)))
(let ((.def_336 (and .def_321 .def_335)))
(let ((.def_337 (or b.counter.1__AT1 .def_336)))
(let ((.def_331 (or .def_131 b.counter.1__AT2)))
(let ((.def_338 (and .def_331 .def_337)))
(let ((.def_351 (and .def_328 .def_338)))
(let ((.def_352 (or b.counter.2__AT1 .def_351)))
(let ((.def_346 (and .def_143 .def_321)))
(let ((.def_347 (or b.counter.1__AT1 .def_346)))
(let ((.def_348 (and .def_331 .def_347)))
(let ((.def_349 (and b.counter.2__AT2 .def_348)))
(let ((.def_350 (or .def_138 .def_349)))
(let ((.def_353 (and .def_350 .def_352)))
(let ((.def_354 (and b.counter.3__AT2 .def_353)))
(let ((.def_355 (or b.counter.3__AT1 .def_354)))
(let ((.def_339 (and b.counter.2__AT2 .def_338)))
(let ((.def_340 (or b.counter.2__AT1 .def_339)))
(let ((.def_325 (or b.counter.1__AT1 b.counter.1__AT2)))
(let ((.def_323 (and .def_321 b.counter.0__AT2)))
(let ((.def_324 (or .def_131 .def_323)))
(let ((.def_326 (and .def_324 .def_325)))
(let ((.def_329 (and .def_326 .def_328)))
(let ((.def_330 (or .def_138 .def_329)))
(let ((.def_341 (and .def_330 .def_340)))
(let ((.def_344 (and .def_341 .def_343)))
(let ((.def_345 (or .def_153 .def_344)))
(let ((.def_356 (and .def_345 .def_355)))
(let ((.def_316 (* (- 1.0) b.speed_y__AT1)))
(let ((.def_317 (* .def_126 .def_316)))
(let ((.def_319 (= .def_317 b.speed_y__AT2)))
(let ((.def_357 (and .def_319 .def_356)))
(let ((.def_315 (not .def_314)))
(let ((.def_358 (or .def_315 .def_357)))
(let ((.def_369 (and .def_358 .def_368)))
(let ((.def_372 (and .def_369 .def_371)))
(let ((.def_373 (or .def_262 .def_372)))
(let ((.def_374 (or b.EVENT.1__AT1 .def_373)))
(let ((.def_379 (and .def_374 .def_378)))
(let ((.def_398 (and .def_379 .def_397)))
(let ((.def_423 (and .def_398 .def_422)))
(let ((.def_426 (and .def_423 .def_425)))
(let ((.def_429 (and .def_426 .def_428)))
(let ((.def_430 (and .def_251 .def_429)))
(let ((.def_447 (and .def_430 .def_446)))
(let ((.def_451 (and .def_447 .def_450)))
(let ((.def_269 (* 49.0 b.delta__AT1)))
(let ((.def_270 (* b.delta__AT1 .def_269)))
(let ((.def_271 (* (- 1.0) .def_270)))
(let ((.def_267 (* 10.0 b.speed_y__AT1)))
(let ((.def_268 (* b.delta__AT1 .def_267)))
(let ((.def_272 (+ .def_268 .def_271)))
(let ((.def_275 (+ .def_273 .def_272)))
(let ((.def_276 (<= 0.0 .def_275)))
(let ((.def_303 (not .def_276)))
(let ((.def_288 (+ .def_278 .def_287)))
(let ((.def_289 (<= 0.0 .def_288)))
(let ((.def_304 (and .def_289 .def_303)))
(let ((.def_299 (<= b.speed_y__AT1 0.0 )))
(let ((.def_256 (<= 0.0 b.y__AT1)))
(let ((.def_302 (or .def_256 .def_299)))
(let ((.def_305 (or .def_302 .def_304)))
(let ((.def_298 (<= b.y__AT1 0.0 )))
(let ((.def_300 (and .def_298 .def_299)))
(let ((.def_293 (<= .def_288 0.0 )))
(let ((.def_294 (not .def_293)))
(let ((.def_291 (= .def_275 0.0 )))
(let ((.def_292 (not .def_291)))
(let ((.def_295 (or .def_292 .def_294)))
(let ((.def_290 (or .def_276 .def_289)))
(let ((.def_296 (and .def_290 .def_295)))
(let ((.def_279 (* b.speed_y__AT1 .def_278)))
(let ((.def_280 (* 98.0 b.y__AT1)))
(let ((.def_282 (+ .def_280 .def_279)))
(let ((.def_285 (<= .def_282 0.0 )))
(let ((.def_286 (not .def_285)))
(let ((.def_297 (or .def_286 .def_296)))
(let ((.def_301 (or .def_297 .def_300)))
(let ((.def_306 (and .def_301 .def_305)))
(let ((.def_283 (<= 0.0 .def_282)))
(let ((.def_284 (not .def_283)))
(let ((.def_307 (or .def_284 .def_306)))
(let ((.def_266 (not .def_265)))
(let ((.def_277 (or .def_266 .def_276)))
(let ((.def_308 (and .def_277 .def_307)))
(let ((.def_309 (or .def_263 .def_308)))
(let ((.def_257 (and .def_59 .def_256)))
(let ((.def_254 (or .def_251 .def_253)))
(let ((.def_244 (or .def_131 .def_143)))
(let ((.def_248 (or b.counter.3__AT1 .def_244)))
(let ((.def_245 (or b.counter.2__AT1 .def_244)))
(let ((.def_243 (or .def_138 .def_143)))
(let ((.def_246 (and .def_243 .def_245)))
(let ((.def_247 (or .def_153 .def_246)))
(let ((.def_249 (and .def_247 .def_248)))
(let ((.def_255 (and .def_249 .def_254)))
(let ((.def_258 (and .def_255 .def_257)))
(let ((.def_68 (<= 0.0 b.delta__AT0)))
(let ((.def_49 (not b.EVENT.0__AT0)))
(let ((.def_47 (not b.EVENT.1__AT0)))
(let ((.def_65 (and .def_47 .def_49)))
(let ((.def_66 (not .def_65)))
(let ((.def_239 (or .def_66 .def_68)))
(let ((.def_240 (or b.EVENT.1__AT0 .def_239)))
(let ((.def_175 (= b.counter.0__AT0 b.counter.0__AT1)))
(let ((.def_173 (= b.counter.1__AT0 b.counter.1__AT1)))
(let ((.def_171 (= b.counter.2__AT0 b.counter.2__AT1)))
(let ((.def_170 (= b.counter.3__AT0 b.counter.3__AT1)))
(let ((.def_172 (and .def_170 .def_171)))
(let ((.def_174 (and .def_172 .def_173)))
(let ((.def_176 (and .def_174 .def_175)))
(let ((.def_236 (or .def_66 .def_176)))
(let ((.def_237 (or b.EVENT.1__AT0 .def_236)))
(let ((.def_228 (* (- 5.0) b.speed_y__AT1)))
(let ((.def_95 (* (- 49.0) b.delta__AT0)))
(let ((.def_229 (+ .def_95 .def_228)))
(let ((.def_84 (* 5.0 b.speed_y__AT0)))
(let ((.def_230 (+ .def_84 .def_229)))
(let ((.def_231 (= .def_230 0.0 )))
(let ((.def_217 (* b.speed_y__AT0 b.delta__AT0)))
(let ((.def_218 (* 10.0 .def_217)))
(let ((.def_215 (* b.delta__AT0 b.delta__AT0)))
(let ((.def_216 (* (- 49.0) .def_215)))
(let ((.def_219 (+ .def_216 .def_218)))
(let ((.def_221 (* (- 10.0) b.y__AT1)))
(let ((.def_224 (+ .def_221 .def_219)))
(let ((.def_78 (* 10.0 b.y__AT0)))
(let ((.def_225 (+ .def_78 .def_224)))
(let ((.def_226 (= .def_225 0.0 )))
(let ((.def_232 (and .def_226 .def_231)))
(let ((.def_233 (or .def_66 .def_232)))
(let ((.def_181 (= b.y__AT0 b.y__AT1)))
(let ((.def_169 (= b.speed_y__AT0 b.speed_y__AT1)))
(let ((.def_212 (and .def_169 .def_181)))
(let ((.def_209 (= b.delta__AT0 0.0 )))
(let ((.def_210 (and .def_65 .def_209)))
(let ((.def_211 (not .def_210)))
(let ((.def_213 (or .def_211 .def_212)))
(let ((.def_214 (or b.EVENT.1__AT0 .def_213)))
(let ((.def_234 (and .def_214 .def_233)))
(let ((.def_191 (= b.time__AT0 b.time__AT1)))
(let ((.def_203 (and .def_181 .def_191)))
(let ((.def_204 (and .def_169 .def_203)))
(let ((.def_205 (and .def_176 .def_204)))
(let ((.def_206 (or .def_47 .def_205)))
(let ((.def_194 (* (- 1.0) b.time__AT1)))
(let ((.def_197 (+ b.delta__AT0 .def_194)))
(let ((.def_198 (+ b.time__AT0 .def_197)))
(let ((.def_199 (= .def_198 0.0 )))
(let ((.def_200 (or .def_66 .def_199)))
(let ((.def_201 (or b.EVENT.1__AT0 .def_200)))
(let ((.def_192 (or .def_65 .def_191)))
(let ((.def_193 (or b.EVENT.1__AT0 .def_192)))
(let ((.def_202 (and .def_193 .def_201)))
(let ((.def_207 (and .def_202 .def_206)))
(let ((.def_187 (= .def_66 b.event_is_timed__AT1)))
(let ((.def_185 (= b.event_is_timed__AT0 .def_65)))
(let ((.def_188 (and .def_185 .def_187)))
(let ((.def_177 (and .def_169 .def_176)))
(let ((.def_120 (<= 0.0 b.speed_y__AT0)))
(let ((.def_121 (not .def_120)))
(let ((.def_119 (= b.y__AT0 0.0 )))
(let ((.def_122 (and .def_119 .def_121)))
(let ((.def_178 (or .def_122 .def_177)))
(let ((.def_144 (or b.counter.0__AT0 .def_143)))
(let ((.def_30 (not b.counter.0__AT0)))
(let ((.def_142 (or .def_30 b.counter.0__AT1)))
(let ((.def_145 (and .def_142 .def_144)))
(let ((.def_146 (and .def_131 .def_145)))
(let ((.def_147 (or b.counter.1__AT0 .def_146)))
(let ((.def_28 (not b.counter.1__AT0)))
(let ((.def_141 (or .def_28 b.counter.1__AT1)))
(let ((.def_148 (and .def_141 .def_147)))
(let ((.def_161 (and .def_138 .def_148)))
(let ((.def_162 (or b.counter.2__AT0 .def_161)))
(let ((.def_156 (and .def_30 .def_131)))
(let ((.def_157 (or b.counter.1__AT0 .def_156)))
(let ((.def_158 (and .def_141 .def_157)))
(let ((.def_159 (and b.counter.2__AT1 .def_158)))
(let ((.def_33 (not b.counter.2__AT0)))
(let ((.def_160 (or .def_33 .def_159)))
(let ((.def_163 (and .def_160 .def_162)))
(let ((.def_164 (and b.counter.3__AT1 .def_163)))
(let ((.def_165 (or b.counter.3__AT0 .def_164)))
(let ((.def_149 (and b.counter.2__AT1 .def_148)))
(let ((.def_150 (or b.counter.2__AT0 .def_149)))
(let ((.def_135 (or b.counter.1__AT0 b.counter.1__AT1)))
(let ((.def_133 (and .def_131 b.counter.0__AT1)))
(let ((.def_134 (or .def_28 .def_133)))
(let ((.def_136 (and .def_134 .def_135)))
(let ((.def_139 (and .def_136 .def_138)))
(let ((.def_140 (or .def_33 .def_139)))
(let ((.def_151 (and .def_140 .def_150)))
(let ((.def_154 (and .def_151 .def_153)))
(let ((.def_36 (not b.counter.3__AT0)))
(let ((.def_155 (or .def_36 .def_154)))
(let ((.def_166 (and .def_155 .def_165)))
(let ((.def_124 (* (- 1.0) b.speed_y__AT0)))
(let ((.def_127 (* .def_124 .def_126)))
(let ((.def_129 (= .def_127 b.speed_y__AT1)))
(let ((.def_167 (and .def_129 .def_166)))
(let ((.def_123 (not .def_122)))
(let ((.def_168 (or .def_123 .def_167)))
(let ((.def_179 (and .def_168 .def_178)))
(let ((.def_182 (and .def_179 .def_181)))
(let ((.def_183 (or .def_65 .def_182)))
(let ((.def_184 (or b.EVENT.1__AT0 .def_183)))
(let ((.def_189 (and .def_184 .def_188)))
(let ((.def_208 (and .def_189 .def_207)))
(let ((.def_235 (and .def_208 .def_234)))
(let ((.def_238 (and .def_235 .def_237)))
(let ((.def_241 (and .def_238 .def_240)))
(let ((.def_242 (and .def_47 .def_241)))
(let ((.def_259 (and .def_242 .def_258)))
(let ((.def_31 (and .def_28 .def_30)))
(let ((.def_34 (and .def_31 .def_33)))
(let ((.def_37 (and .def_34 .def_36)))
(let ((.def_260 (and .def_37 .def_259)))
(let ((.def_73 (* 49.0 b.delta__AT0)))
(let ((.def_74 (* b.delta__AT0 .def_73)))
(let ((.def_76 (* (- 1.0) .def_74)))
(let ((.def_70 (* 10.0 b.speed_y__AT0)))
(let ((.def_71 (* b.delta__AT0 .def_70)))
(let ((.def_77 (+ .def_71 .def_76)))
(let ((.def_80 (+ .def_78 .def_77)))
(let ((.def_81 (<= 0.0 .def_80)))
(let ((.def_111 (not .def_81)))
(let ((.def_96 (+ .def_84 .def_95)))
(let ((.def_97 (<= 0.0 .def_96)))
(let ((.def_112 (and .def_97 .def_111)))
(let ((.def_107 (<= b.speed_y__AT0 0.0 )))
(let ((.def_60 (<= 0.0 b.y__AT0)))
(let ((.def_110 (or .def_60 .def_107)))
(let ((.def_113 (or .def_110 .def_112)))
(let ((.def_106 (<= b.y__AT0 0.0 )))
(let ((.def_108 (and .def_106 .def_107)))
(let ((.def_101 (<= .def_96 0.0 )))
(let ((.def_102 (not .def_101)))
(let ((.def_99 (= .def_80 0.0 )))
(let ((.def_100 (not .def_99)))
(let ((.def_103 (or .def_100 .def_102)))
(let ((.def_98 (or .def_81 .def_97)))
(let ((.def_104 (and .def_98 .def_103)))
(let ((.def_85 (* b.speed_y__AT0 .def_84)))
(let ((.def_87 (* 98.0 b.y__AT0)))
(let ((.def_89 (+ .def_87 .def_85)))
(let ((.def_92 (<= .def_89 0.0 )))
(let ((.def_93 (not .def_92)))
(let ((.def_105 (or .def_93 .def_104)))
(let ((.def_109 (or .def_105 .def_108)))
(let ((.def_114 (and .def_109 .def_113)))
(let ((.def_90 (<= 0.0 .def_89)))
(let ((.def_91 (not .def_90)))
(let ((.def_115 (or .def_91 .def_114)))
(let ((.def_69 (not .def_68)))
(let ((.def_82 (or .def_69 .def_81)))
(let ((.def_116 (and .def_82 .def_115)))
(let ((.def_117 (or .def_66 .def_116)))
(let ((.def_61 (and .def_59 .def_60)))
(let ((.def_50 (or .def_47 .def_49)))
(let ((.def_40 (or .def_28 .def_30)))
(let ((.def_44 (or b.counter.3__AT0 .def_40)))
(let ((.def_41 (or b.counter.2__AT0 .def_40)))
(let ((.def_39 (or .def_30 .def_33)))
(let ((.def_42 (and .def_39 .def_41)))
(let ((.def_43 (or .def_36 .def_42)))
(let ((.def_45 (and .def_43 .def_44)))
(let ((.def_51 (and .def_45 .def_50)))
(let ((.def_62 (and .def_51 .def_61)))
(let ((.def_25 (= b.speed_y__AT0 0.0 )))
(let ((.def_22 (= b.y__AT0 10.0 )))
(let ((.def_17 (= b.time__AT0 0.0 )))
(let ((.def_19 (and .def_17 b.event_is_timed__AT0)))
(let ((.def_23 (and .def_19 .def_22)))
(let ((.def_26 (and .def_23 .def_25)))
(let ((.def_38 (and .def_26 .def_37)))
(let ((.def_63 (and .def_38 .def_62)))
(let ((.def_7 (and .def_4 .def_6)))
(let ((.def_10 (and .def_7 .def_9)))
(let ((.def_13 (and .def_10 .def_12)))
(let ((.def_14 (not .def_13)))
(let ((.def_64 (and .def_14 .def_63)))
(let ((.def_118 (and .def_64 .def_117)))
(let ((.def_261 (and .def_118 .def_260)))
(let ((.def_310 (and .def_261 .def_309)))
(let ((.def_452 (and .def_310 .def_451)))
(let ((.def_501 (and .def_452 .def_500)))
(let ((.def_635 (and .def_501 .def_634)))
(let ((.def_684 (and .def_635 .def_683)))
.def_684)))))))))))))))))))))))))))))))))))))))))))))))))))))))))))))))))))))))))))))))))))))))))))))))))))))))))))))))))))))))))))))))))))))))))))))))))))))))))))))))))))))))))))))))))))))))))))))))))))))))))))))))))))))))))))))))))))))))))))))))))))))))))))))))))))))))))))))))))))))))))))))))))))))))))))))))))))))))))))))))))))))))))))))))))))))))))))))))))))))))))))))))))))))))))))))))))))))))))))))))))))))))))))))))))))))))))))))))))))))))))))))))))))))))))))))))))))))))))))))))))))))))))))))))))))))))))))))))))))))))))))))))))))))))))))))))))))))))))))))))))))))))))))))))))))))))))))))))))))))))))))))
(check-sat)
(exit)
